Normalized Data/p01_1090_tsplib0_normalized.txt
NAME: p01_1090_tsplib0_NORMALIZED
BEST_KNOWN: 0
COMMENT: 0
DIMENSION: 51
CAPACITY: 100
EDGE_WEIGHT_FORMAT: FUNCTION
EDGE_WEIGHT_TYPE: EXACT_2D
NODE_COORD_SECTION
1 0 0
2 7 12
3 19 9
4 22 24
5 -10 -14
6 10 -10
7 -9 7
8 -13 23
9 1 22
10 22 -7
11 21 -19
12 12 1
13 1 -8
14 -25 -15
15 -18 2
16 6 -24
17 22 1
18 -3 -17
19 -13 -7
20 -17 -27
21 27 18
22 32 2
23 12 17
24 -14 17
25 -22 12
26 -23 -2
27 -3 28
28 0 8
29 13 27
30 28 8
31 28 -13
32 7 29
33 8 6
34 16 -30
35 31 -7
36 32 23
37 33 29
38 2 -18
39 15 -5
40 29 -25
41 -25 -34
42 -20 -23
43 -9 -30
44 -25 24
45 0 -25
46 9 -30
47 2 -1
48 -5 -8
49 -5 15
50 18 -12
51 26 -3
DEMAND_SECTION
1 0
2 78
3 41
4 28
5 54
6 82
7 78
8 49
9 18
10 26
11 12
12 74
13 41
14 46
15 51
16 65
17 33
18 16
19 50
20 78
21 53
22 18
23 60
24 61
25 56
26 73
27 68
28 12
29 71
30 21
31 18
32 77
33 73
34 76
35 26
36 77
37 48
38 71
39 48
40 48
41 76
42 25
43 15
44 60
45 63
46 80
47 32
48 49
49 44
50 77
51 59
DEPOT_SECTION
1
-1
EOF