Normalized Data/p01_1090_tsplib0_normalized.sol
50 -1 -2 20 -3 36 21 -4 12 -5 -6 -7 48 -9 38 -10 33 -11 -13 14 -15 46 -16 50 -17 19 -18 47 -22 -23 -24 -25 -26 8 27 -28 -29 35 -31 -32 -34 30 39 -37 -40 42 -41 44 -43 -45 -49 0 





OBJ=
1681.441
BEST_KNOWN=
0.000